tsp_instances/TSP50/instance24.tsp
NODE_COORD_SECTION
0 164 170
1 51 51
2 185 26
3 160 58
4 96 108
5 165 190
6 58 103
7 113 136
8 128 196
9 152 99
10 197 84
11 147 149
12 142 81
13 121 24
14 131 80
15 134 172
16 183 180
17 164 35
18 171 36
19 131 37
20 173 38
21 39 132
22 137 74
23 26 71
24 30 47
25 196 146
26 90 11
27 128 86
28 88 32
29 50 76
30 54 131
31 104 168
32 189 193
33 72 147
34 174 107
35 2 159
36 196 186
37 55 174
38 79 7
39 133 79
40 111 168
41 8 89
42 96 130
43 171 50
44 31 174
45 119 179
46 126 61
47 86 39
48 5 58
49 105 75
