tsp_instances/TSP50/instance24.opt.tour
TOUR_SECTION
1
6
33
37
17
26
11
35
10
13
23
40
15
28
50
47
4
44
21
3
19
18
20
14
27
39
29
48
2
25
49
42
24
30
7
31
22
36
45
38
34
43
5
8
32
41
46
9
16
12
-1